Instance: E101-14s.dat
Class:  5
  100 --- number of customers (no depot)
   22 --- number of vehicles
  320 --- number of items
Capacity - height - width of vehicles
   112     40     20
Node - x - y - demand
    0    35.0    35.0     0.0
    1    41.0    49.0    10.0
    2    35.0    17.0     7.0
    3    55.0    45.0    13.0
    4    55.0    20.0    19.0
    5    15.0    30.0    26.0
    6    25.0    30.0     3.0
    7    20.0    50.0     5.0
    8    10.0    43.0     9.0
    9    55.0    60.0    16.0
   10    30.0    60.0    16.0
   11    20.0    65.0    12.0
   12    50.0    35.0    19.0
   13    30.0    25.0    23.0
   14    15.0    10.0    20.0
   15    30.0     5.0     8.0
   16    10.0    20.0    19.0
   17     5.0    30.0     2.0
   18    20.0    40.0    12.0
   19    15.0    60.0    17.0
   20    45.0    65.0     9.0
   21    45.0    20.0    11.0
   22    45.0    10.0    18.0
   23    55.0     5.0    29.0
   24    65.0    35.0     3.0
   25    65.0    20.0     6.0
   26    45.0    30.0    17.0
   27    35.0    40.0    16.0
   28    41.0    37.0    16.0
   29    64.0    42.0     9.0
   30    40.0    60.0    21.0
   31    31.0    52.0    27.0
   32    35.0    69.0    23.0
   33    53.0    52.0    11.0
   34    65.0    55.0    14.0
   35    63.0    65.0     8.0
   36     2.0    60.0     5.0
   37    20.0    20.0     8.0
   38     5.0     5.0    16.0
   39    60.0    12.0    31.0
   40    40.0    25.0     9.0
   41    42.0     7.0     5.0
   42    24.0    12.0     5.0
   43    23.0     3.0     7.0
   44    11.0    14.0    18.0
   45     6.0    38.0    16.0
   46     2.0    48.0     1.0
   47     8.0    56.0    27.0
   48    13.0    52.0    36.0
   49     6.0    68.0    30.0
   50    47.0    47.0    13.0
   51    49.0    58.0    10.0
   52    27.0    43.0     9.0
   53    37.0    31.0    14.0
   54    57.0    29.0    18.0
   55    63.0    23.0     2.0
   56    53.0    12.0     6.0
   57    32.0    12.0     7.0
   58    36.0    26.0    18.0
   59    21.0    24.0    28.0
   60    17.0    34.0     3.0
   61    12.0    24.0    13.0
   62    24.0    58.0    19.0
   63    27.0    69.0    10.0
   64    15.0    77.0     9.0
   65    62.0    77.0    20.0
   66    49.0    73.0    25.0
   67    67.0     5.0    25.0
   68    56.0    39.0    36.0
   69    37.0    47.0     6.0
   70    37.0    56.0     5.0
   71    57.0    68.0    15.0
   72    47.0    16.0    25.0
   73    44.0    17.0     9.0
   74    46.0    13.0     8.0
   75    49.0    11.0    18.0
   76    49.0    42.0    13.0
   77    53.0    43.0    14.0
   78    61.0    52.0     3.0
   79    57.0    48.0    23.0
   80    56.0    37.0     6.0
   81    55.0    54.0    26.0
   82    15.0    47.0    16.0
   83    14.0    37.0    11.0
   84    11.0    31.0     7.0
   85    16.0    22.0    41.0
   86     4.0    18.0    35.0
   87    28.0    18.0    26.0
   88    26.0    52.0     9.0
   89    26.0    35.0    15.0
   90    31.0    67.0     3.0
   91    15.0    19.0     1.0
   92    22.0    22.0     2.0
   93    18.0    24.0    22.0
   94    26.0    27.0    27.0
   95    25.0    24.0    20.0
   96    22.0    27.0    11.0
   97    25.0    21.0    12.0
   98    19.0    21.0    10.0
   99    20.0    26.0     9.0
  100    18.0    18.0    17.0
Node - number of items - h - w for each item
    0   0
    1   4    7   11    7   11    5    8   10    6
    2   4    5    9   10    3   11    2    6    2
    3   2    4    8    8    3
    4   5   22    4    7    4    9    3    7    3   14    2
    5   4    7   10    9    4   22    3   11    2
    6   3    5    4   13    3    7    3
    7   5    9    5   19    3   19    3    7    3    6    3
    8   4    9    4    8    4   17    2    4    2
    9   3    7    9   24    4   17    3
   10   1   21    4
   11   4   17    3    5    3    8    2    4    2
   12   4    7    6   10    5   22    4    7    4
   13   4    4    7    8    6    7    5   20    3
   14   1    5    6
   15   4    6   12    5   11    8    3    8    3
   16   4   22    4   11    4    5    4    7    3
   17   4   10    5    4    4    6    3   15    2
   18   3    6   12   22    4   19    3
   19   3    7   11    6    6   16    3
   20   5    7    7    7    7    6    4   22    3   16    3
   21   5    8    4   22    3    7    3    7    3   21    2
   22   5   10    5    8    4    9    3    4    3   20    2
   23   1    6   10
   24   4    8    4    9    3    6    3   16    2
   25   1    8    5
   26   5    9    6   19    3   11    3   10    3    9    2
   27   1   11    4
   28   1   22    4
   29   3    4   10    7    2    6    2
   30   2    6    4    6    2
   31   2    5    9    5    3
   32   4    5   12    6    5   22    3    4    3
   33   5    6    7   12    4    6    4    5    3    5    2
   34   3    7   11    6    5   13    3
   35   3    7    9    7    6   11    4
   36   1   14    3
   37   5    8    6    8    5    6    5   10    3    9    3
   38   4    8    4   12    3    5    3    5    2
   39   2    6    9   12    2
   40   4    5    6    6    5    6    4    7    2
   41   4    4   11    8    8    4    4   10    3
   42   1   12    5
   43   3    7   11   10    4   24    2
   44   1    6    4
   45   2    6    6   10    5
   46   4    5   10    4    5   11    4    7    3
   47   3    8    7   12    5   10    5
   48   3   23    3   14    3    6    3
   49   5    5   11    7    7    7    6    6    2    4    2
   50   4    7    9   22    4    9    4   10    2
   51   2   11    4   18    3
   52   5   10    6   19    3    7    3   24    2   18    2
   53   2   11    5   21    2
   54   2    6   10    5    4
   55   1    5    5
   56   5    6   10    6    4    5    3   21    2   11    2
   57   5    5   10    6    7   12    3    9    2    4    2
   58   4    5    5    7    4    6    3    5    3
   59   2    8    6   15    4
   60   3    7    5   23    3    6    3
   61   4    5   12    6    6   15    2   11    2
   62   2    6    4    6    3
   63   2    4    5    8    3
   64   5    7    5    6    5   20    4    4    4   18    3
   65   3    6    5   21    4   15    3
   66   4    5   12    8    4    5    3   11    2
   67   2    8    4   19    3
   68   4   11    3    8    3    6    3   22    2
   69   4    8    6    5    5    8    4   12    3
   70   1   11    4
   71   2   17    3   10    2
   72   2    7   10    6   10
   73   3    7    9    5    7   12    4
   74   4    4    8    8    6   23    3    7    3
   75   3    7    5    6    4   22    3
   76   1    6    6
   77   4    5    7    8    5   11    4   21    3
   78   5    6    4   14    3   12    3   14    2   14    2
   79   4   12    3    9    3    8    3    5    3
   80   2   11    5    5    3
   81   1    7   11
   82   2   18    4    7    3
   83   5    5    5   23    4    5    4    4    4   14    3
   84   5    6    8    6    6   11    4   10    3    7    3
   85   4    8    6    6    5    5    4   18    3
   86   5    6    5   10    4    9    4   11    3    8    3
   87   2    8    5    7    3
   88   5    6   11    4   11    8    4   19    3   10    3
   89   1    6    6
   90   5    8   11    4   11    5    3    8    2    7    2
   91   5    6   10    7    9    5    9    8    7    5    3
   92   1    9    4
   93   5    6   10    7    8    7    5   19    4    6    4
   94   2    5    4    5    3
   95   3    5    6    9    3    6    3
   96   3    5    4    5    4   22    3
   97   3    4    8   18    4   22    3
   98   4    9    6   20    3   14    3   10    3
   99   3    6    4    4    4    6    2
  100   2    9    3   10    2
